5585
4177
10016
984
4109
4435
5194
5674
5751
1071
8730
3790
8835
9667
3844
2129
6434
2836
5605
685
5568
9483
5292
4168
1503
5552
7644
8500
922
1355
1877
2932
6801
1333
9135
9027
1051
2431
2592
4503
2692
8288
3938
6879
7376
5727
8895
7901
9321
9336
